//Dat File

outFile="MPVSBPP_SET1_IT200_ITV1_NT1_TS3_WT1_VT1_REP8";
m=200;
o=32;
p=3;
numVTypes=1;

demand = [4, 9, 7, 5, 2, 2, 1, 1, 7, 2, 8, 3, 5, 7, 2, 2, 2, 6, 10, 4, 5, 10, 5, 2, 10, 3, 9, 8, 3, 1, 6, 10, 8, 3, 7, 5, 6, 4, 9, 9, 8, 8, 7, 5, 6, 3, 8, 6, 2, 4, 3, 1, 10, 11, 5, 8, 7, 3, 10, 4, 6, 2, 11, 4, 11, 11, 4, 7, 8, 9, 8, 10, 3, 10, 10, 1, 2, 8, 5, 1, 8, 4, 7, 5, 8, 11, 6, 7, 3, 1, 5, 9, 4, 6, 5, 8, 8, 8, 3, 1, 5, 1, 11, 11, 3, 7, 4, 9, 3, 3, 8, 6, 11, 5, 5, 6, 6, 11, 1, 11, 5, 1, 2, 8, 2, 9, 4, 4, 4, 9, 8, 11, 3, 7, 10, 4, 8, 2, 8, 5, 2, 11, 9, 2, 3, 11, 2, 4, 8, 3, 14, 19, 19, 19, 14, 18, 16, 13, 15, 13, 13, 16, 19, 16, 13, 16, 12, 17, 14, 13, 13, 12, 16, 18, 12, 17, 14, 18, 18, 13, 14, 14, 16, 12, 14, 19, 15, 16, 13, 13, 15, 16, 18, 19, 18, 18, 15, 18, 12, 14];
Depot_Cap = [30000, 30000, 30000];
Tarif = [10, 3, 7];
VeicVolume = [100];
VeicCost = [100];
VeicType = [1, 1, 1, 1, 1, 1, 1, 1, 1, 1, 1, 1, 1, 1, 1, 1, 1, 1, 1, 1, 1, 1, 1, 1, 1, 1, 1, 1, 1, 1, 1, 1];
Elect_vehicle = [[70, 100, 30], [70, 100, 30], [70, 100, 30], [70, 100, 30], [70, 100, 30], [70, 100, 30], [70, 100, 30], [70, 100, 30], [70, 100, 30], [70, 100, 30], [70, 100, 30], [70, 100, 30], [70, 100, 30], [70, 100, 30], [70, 100, 30], [70, 100, 30], [70, 100, 30], [70, 100, 30], [70, 100, 30], [70, 100, 30], [70, 100, 30], [70, 100, 30], [70, 100, 30], [70, 100, 30], [70, 100, 30], [70, 100, 30], [70, 100, 30], [70, 100, 30], [70, 100, 30], [70, 100, 30], [70, 100, 30], [70, 100, 30]];